\* Source Pyomo model name=urbs *\

min 
x1657:
+1 x1
+1 x2
+1 x3
+1 x4
+1 x5
+1 x6
+1 x7

s.t.

c_e_x1658_:
-1 x337
+1 x8
= 0

c_e_x1659_:
+1 x10
= 0

c_e_x1660_:
+1 x1000
+1 x1012
-1 x1549
-1 x1550
+1 x1563
+1 x1565
-1 x1597
-1 x1598
+1 x1609
+1 x1610
-1 x1639
+1 x1645
+1 x1651
+1 x940
+1 x952
+1 x964
+1 x976
+1 x988
= 43102.490062478246

c_e_x1661_:
+1 x12
-1 x355
= 0

c_e_x1662_:
+1 x14
-1 x381
= 0

c_e_x1663_:
+1 x15
-1 x406
= 0

c_e_x1664_:
+1 x18
-1 x421
= 0

c_e_x1665_:
+1 x20
-1 x435
= 0

c_e_x1666_:
+1 x1024
+1 x1036
+1 x1060
+1 x1072
+1 x1084
+1 x1096
+1 x1108
+1 x1120
-1 x1551
-1 x1552
+1 x1561
+1 x1566
-1 x1599
-1 x1600
+1 x1611
+1 x1612
-1 x1640
+1 x1646
+1 x1652
-1 x448
= 11001.191759952759

c_e_x1667_:
+1 x158
-1 x497
= 0

c_e_x1668_:
+1 x1050
-1 x91
= 0

c_e_x1669_:
+1 x24
-1 x463
= 0

c_e_x1670_:
+1 x26
= 0

c_e_x1671_:
+1 x27
-1 x514
= 0

c_e_x1672_:
+1 x30
-1 x529
= 0

c_e_x1673_:
+1 x32
-1 x543
= 0

c_e_x1674_:
+1 x1132
+1 x1144
+1 x1168
+1 x1180
+1 x1192
+1 x1204
+1 x1216
+1 x1228
-1 x1553
-1 x1554
+1 x1562
+1 x1564
-1 x1601
-1 x1602
+1 x1613
+1 x1614
-1 x1641
+1 x1647
+1 x1653
-1 x556
= 4877.3998100588624

c_e_x1675_:
+1 x170
-1 x605
= 0

c_e_x1676_:
-1 x103
+1 x1158
= 0

c_e_x1677_:
+1 x36
-1 x571
= 0

c_e_x1678_:
+1 x38
= 0

c_e_x1679_:
+1 x39
-1 x622
= 0

c_e_x1680_:
+1 x42
-1 x637
= 0

c_e_x1681_:
+1 x44
= 0

c_e_x1682_:
+1 x1240
+1 x1252
+1 x1264
+1 x1276
+1 x1288
+1 x1300
+1 x1312
-1 x1555
-1 x1556
+1 x1569
+1 x1571
-1 x1603
-1 x1604
+1 x1615
+1 x1616
-1 x1642
+1 x1648
+1 x1654
= 41692.00287095533

c_e_x1683_:
+1 x46
-1 x655
= 0

c_e_x1684_:
+1 x48
-1 x681
= 0

c_e_x1685_:
+1 x49
-1 x706
= 0

c_e_x1686_:
+1 x52
-1 x721
= 0

c_e_x1687_:
+1 x54
-1 x735
= 0

c_e_x1688_:
+1 x1324
+1 x1336
+1 x1360
+1 x1372
+1 x1384
+1 x1396
+1 x1408
+1 x1420
-1 x1557
-1 x1558
+1 x1567
+1 x1572
-1 x1605
-1 x1606
+1 x1617
+1 x1618
-1 x1643
+1 x1649
+1 x1655
-1 x748
= 10769.374503145244

c_e_x1689_:
+1 x192
-1 x797
= 0

c_e_x1690_:
-1 x125
+1 x1350
= 0

c_e_x1691_:
+1 x58
-1 x763
= 0

c_e_x1692_:
+1 x60
= 0

c_e_x1693_:
+1 x61
-1 x814
= 0

c_e_x1694_:
+1 x64
-1 x829
= 0

c_e_x1695_:
+1 x66
-1 x843
= 0

c_e_x1696_:
+1 x1432
+1 x1444
+1 x1468
+1 x1480
+1 x1492
+1 x1504
+1 x1516
+1 x1528
-1 x1559
-1 x1560
+1 x1568
+1 x1570
-1 x1607
-1 x1608
+1 x1619
+1 x1620
-1 x1644
+1 x1650
+1 x1656
-1 x856
= 4646.9859868323483

c_e_x1697_:
+1 x204
-1 x905
= 0

c_e_x1698_:
-1 x137
+1 x1458
= 0

c_e_x1699_:
+1 x70
-1 x871
= 0

c_e_x1700_:
+1 x72
= 0

c_e_x1701_:
+1 x73
-1 x922
= 0

c_e_x1702_:
+1 x212
-1 x237
= 2000

c_e_x1703_:
+1 x213
-1 x238
= 5000

c_e_x1704_:
+1 x214
-1 x239
= 1000

c_e_x1705_:
+1 x215
-1 x240
= 20000

c_e_x1706_:
+1 x216
-1 x241
= 5000

c_e_x1707_:
+1 x217
-1 x242
= 999999

c_e_x1708_:
+1 x218
-1 x243
= 5000

c_e_x1709_:
+1 x219
-1 x244
= 1000

c_e_x1710_:
+1 x220
-1 x245
= 2000

c_e_x1711_:
+1 x221
-1 x246
= 0

c_e_x1712_:
+1 x222
-1 x247
= 2000

c_e_x1713_:
+1 x223
-1 x248
= 100

c_e_x1714_:
+1 x224
-1 x249
= 2000

c_e_x1715_:
+1 x225
-1 x250
= 0

c_e_x1716_:
+1 x226
-1 x251
= 999999

c_e_x1717_:
+1 x227
-1 x252
= 6000

c_e_x1718_:
+1 x228
-1 x253
= 100

c_e_x1719_:
+1 x229
-1 x254
= 100

c_e_x1720_:
+1 x230
-1 x255
= 0

c_e_x1721_:
+1 x231
-1 x256
= 1000

c_e_x1722_:
+1 x232
-1 x257
= 1000

c_e_x1723_:
+1 x233
-1 x258
= 1000

c_e_x1724_:
+1 x234
-1 x259
= 0

c_e_x1725_:
+1 x235
-1 x260
= 999999

c_e_x1726_:
+1 x236
-1 x261
= 500

c_e_x1727_:
-1 x287
+1 x337
= 0

c_e_x1728_:
-1 x289
+1 x368
= 0

c_e_x1729_:
-1 x291
+1 x395
= 0

c_e_x1730_:
-1 x292
+1 x406
= 0

c_e_x1731_:
-1 x293
+1 x420
= 0

c_e_x1732_:
-1 x294
+1 x421
= 0

c_e_x1733_:
-1 x296
+1 x448
= 0

c_e_x1734_:
-1 x298
+1 x476
= 0

c_e_x1735_:
-1 x299
+1 x491
= 0

c_e_x1736_:
-1 x300
+1 x497
= 0

c_e_x1737_:
-1 x301
+1 x514
= 0

c_e_x1738_:
-1 x302
+1 x528
= 0

c_e_x1739_:
-1 x303
+1 x529
= 0

c_e_x1740_:
-1 x305
+1 x556
= 0

c_e_x1741_:
-1 x307
+1 x584
= 0

c_e_x1742_:
-1 x308
+1 x599
= 0

c_e_x1743_:
-1 x309
+1 x605
= 0

c_e_x1744_:
-1 x310
+1 x622
= 0

c_e_x1745_:
-1 x311
+1 x636
= 0

c_e_x1746_:
-1 x312
+1 x637
= 0

c_e_x1747_:
-1 x314
+1 x668
= 0

c_e_x1748_:
-1 x316
+1 x695
= 0

c_e_x1749_:
-1 x317
+1 x706
= 0

c_e_x1750_:
-1 x318
+1 x720
= 0

c_e_x1751_:
-1 x319
+1 x721
= 0

c_e_x1752_:
-1 x321
+1 x748
= 0

c_e_x1753_:
-1 x323
+1 x776
= 0

c_e_x1754_:
-1 x324
+1 x791
= 0

c_e_x1755_:
-1 x325
+1 x797
= 0

c_e_x1756_:
-1 x326
+1 x814
= 0

c_e_x1757_:
-1 x327
+1 x828
= 0

c_e_x1758_:
-1 x328
+1 x829
= 0

c_e_x1759_:
-1 x330
+1 x856
= 0

c_e_x1760_:
-1 x332
+1 x884
= 0

c_e_x1761_:
-1 x333
+1 x899
= 0

c_e_x1762_:
-1 x334
+1 x905
= 0

c_e_x1763_:
-1 x335
+1 x922
= 0

c_e_x1764_:
-1 x336
+1 x936
= 0

c_e_x1765_:
+1 x938
= 0

c_e_x1766_:
-0.34999999999999998 x287
+1 x940
= 0

c_e_x1767_:
-1 x289
+1 x964
= 0

c_e_x1768_:
-1 x291
+1 x988
= 0

c_e_x1769_:
+1 x998
= 0

c_e_x1770_:
+1 x1000
-1 x292
= 0

c_e_x1771_:
+1 x1012
-1 x293
= 0

c_e_x1772_:
+1 x1022
= 0

c_e_x1773_:
+1 x1024
-0.34999999999999998 x294
= 0

c_e_x1774_:
+1 x1036
-0.40000000000000002 x295
= 0

c_e_x1775_:
+1 x1050
-1 x296
= 0

c_e_x1776_:
+1 x1060
-0.59999999999999998 x297
= 0

c_e_x1777_:
+1 x1072
-1 x298
= 0

c_e_x1778_:
+1 x1084
-1 x299
= 0

c_e_x1779_:
+1 x1094
-0.00050000000000000001 x300
= 0

c_e_x1780_:
+1 x1096
-1 x300
= 0

c_e_x1781_:
+1 x1106
= 0

c_e_x1782_:
+1 x1108
-1 x301
= 0

c_e_x1783_:
+1 x1120
-1 x302
= 0

c_e_x1784_:
+1 x1130
= 0

c_e_x1785_:
+1 x1132
-0.34999999999999998 x303
= 0

c_e_x1786_:
+1 x1144
-0.40000000000000002 x304
= 0

c_e_x1787_:
+1 x1158
-1 x305
= 0

c_e_x1788_:
+1 x1168
-0.59999999999999998 x306
= 0

c_e_x1789_:
+1 x1180
-1 x307
= 0

c_e_x1790_:
+1 x1192
-1 x308
= 0

c_e_x1791_:
+1 x1202
-0.00050000000000000001 x309
= 0

c_e_x1792_:
+1 x1204
-1 x309
= 0

c_e_x1793_:
+1 x1214
= 0

c_e_x1794_:
+1 x1216
-1 x310
= 0

c_e_x1795_:
+1 x1228
-1 x311
= 0

c_e_x1796_:
+1 x1238
= 0

c_e_x1797_:
+1 x1240
-0.34999999999999998 x312
= 0

c_e_x1798_:
+1 x1264
-1 x314
= 0

c_e_x1799_:
+1 x1288
-1 x316
= 0

c_e_x1800_:
+1 x1298
= 0

c_e_x1801_:
+1 x1300
-1 x317
= 0

c_e_x1802_:
+1 x1312
-1 x318
= 0

c_e_x1803_:
+1 x1322
= 0

c_e_x1804_:
+1 x1324
-0.34999999999999998 x319
= 0

c_e_x1805_:
+1 x1336
-0.40000000000000002 x320
= 0

c_e_x1806_:
+1 x1350
-1 x321
= 0

c_e_x1807_:
+1 x1360
-0.59999999999999998 x322
= 0

c_e_x1808_:
+1 x1372
-1 x323
= 0

c_e_x1809_:
+1 x1384
-1 x324
= 0

c_e_x1810_:
+1 x1394
-0.00050000000000000001 x325
= 0

c_e_x1811_:
+1 x1396
-1 x325
= 0

c_e_x1812_:
+1 x1406
= 0

c_e_x1813_:
+1 x1408
-1 x326
= 0

c_e_x1814_:
+1 x1420
-1 x327
= 0

c_e_x1815_:
+1 x1430
= 0

c_e_x1816_:
+1 x1432
-0.34999999999999998 x328
= 0

c_e_x1817_:
+1 x1444
-0.40000000000000002 x329
= 0

c_e_x1818_:
+1 x1458
-1 x330
= 0

c_e_x1819_:
+1 x1468
-0.59999999999999998 x331
= 0

c_e_x1820_:
+1 x1480
-1 x332
= 0

c_e_x1821_:
+1 x1492
-1 x333
= 0

c_e_x1822_:
+1 x1502
-0.00050000000000000001 x334
= 0

c_e_x1823_:
+1 x1504
-1 x334
= 0

c_e_x1824_:
+1 x1514
= 0

c_e_x1825_:
+1 x1516
-1 x335
= 0

c_e_x1826_:
+1 x1528
-1 x336
= 0

c_e_x1827_:
-0.41619355379923684 x214
+1 x368
= 0

c_e_x1828_:
+1 x395
= 0

c_e_x1829_:
-0.93526478301087457 x218
+1 x420
= 0

c_e_x1830_:
-0.65179872224632529 x223
+1 x476
= 0

c_e_x1831_:
+1 x491
= 0

c_e_x1832_:
-0.60258347546836044 x227
+1 x528
= 0

c_e_x1833_:
-0.3534971210201473 x232
+1 x584
= 0

c_e_x1834_:
+1 x599
= 0

c_e_x1835_:
-0.45777203176095649 x236
+1 x636
= 0

c_e_x1836_:
-0.41620767572871664 x214
+1 x668
= 0

c_e_x1837_:
+1 x695
= 0

c_e_x1838_:
-0.94240919190659611 x218
+1 x720
= 0

c_e_x1839_:
-0.65178116255878882 x223
+1 x776
= 0

c_e_x1840_:
+1 x791
= 0

c_e_x1841_:
-0.58468178338717991 x227
+1 x828
= 0

c_e_x1842_:
-0.35382966090532797 x232
+1 x884
= 0

c_e_x1843_:
+1 x899
= 0

c_e_x1844_:
-0.45334629404371934 x236
+1 x936
= 0

c_u_x1845_:
-1 x212
+1 x287
<= 0

c_u_x1846_:
-1 x213
+1 x288
<= 0

c_u_x1847_:
-1 x214
+1 x289
<= 0

c_u_x1848_:
-1 x215
+1 x290
<= 0

c_u_x1849_:
-1 x216
+1 x291
<= 0

c_u_x1850_:
-1 x217
+1 x292
<= 0

c_u_x1851_:
-1 x218
+1 x293
<= 0

c_u_x1852_:
-1 x219
+1 x294
<= 0

c_u_x1853_:
-1 x220
+1 x295
<= 0

c_u_x1854_:
-1 x221
+1 x296
<= 0

c_u_x1855_:
-1 x222
+1 x297
<= 0

c_u_x1856_:
-1 x223
+1 x298
<= 0

c_u_x1857_:
-1 x224
+1 x299
<= 0

c_u_x1858_:
-1 x225
+1 x300
<= 0

c_u_x1859_:
-1 x226
+1 x301
<= 0

c_u_x1860_:
-1 x227
+1 x302
<= 0

c_u_x1861_:
-1 x228
+1 x303
<= 0

c_u_x1862_:
-1 x229
+1 x304
<= 0

c_u_x1863_:
-1 x230
+1 x305
<= 0

c_u_x1864_:
-1 x231
+1 x306
<= 0

c_u_x1865_:
-1 x232
+1 x307
<= 0

c_u_x1866_:
-1 x233
+1 x308
<= 0

c_u_x1867_:
-1 x234
+1 x309
<= 0

c_u_x1868_:
-1 x235
+1 x310
<= 0

c_u_x1869_:
-1 x236
+1 x311
<= 0

c_u_x1870_:
-1 x212
+1 x312
<= 0

c_u_x1871_:
-1 x213
+1 x313
<= 0

c_u_x1872_:
-1 x214
+1 x314
<= 0

c_u_x1873_:
-1 x215
+1 x315
<= 0

c_u_x1874_:
-1 x216
+1 x316
<= 0

c_u_x1875_:
-1 x217
+1 x317
<= 0

c_u_x1876_:
-1 x218
+1 x318
<= 0

c_u_x1877_:
-1 x219
+1 x319
<= 0

c_u_x1878_:
-1 x220
+1 x320
<= 0

c_u_x1879_:
-1 x221
+1 x321
<= 0

c_u_x1880_:
-1 x222
+1 x322
<= 0

c_u_x1881_:
-1 x223
+1 x323
<= 0

c_u_x1882_:
-1 x224
+1 x324
<= 0

c_u_x1883_:
-1 x225
+1 x325
<= 0

c_u_x1884_:
-1 x226
+1 x326
<= 0

c_u_x1885_:
-1 x227
+1 x327
<= 0

c_u_x1886_:
-1 x228
+1 x328
<= 0

c_u_x1887_:
-1 x229
+1 x329
<= 0

c_u_x1888_:
-1 x230
+1 x330
<= 0

c_u_x1889_:
-1 x231
+1 x331
<= 0

c_u_x1890_:
-1 x232
+1 x332
<= 0

c_u_x1891_:
-1 x233
+1 x333
<= 0

c_u_x1892_:
-1 x234
+1 x334
<= 0

c_u_x1893_:
-1 x235
+1 x335
<= 0

c_u_x1894_:
-1 x236
+1 x336
<= 0

c_u_x1895_:
-0.89999999999999991 x215
+1 x265
-1 x290
<= 0

c_u_x1896_:
-0.59999999999999998 x220
+1 x270
-1 x295
<= 0

c_u_x1897_:
-0.59999999999999998 x229
+1 x279
-1 x304
<= 0

c_u_x1898_:
-0.89999999999999991 x215
+1 x290
-1 x315
<= 0

c_u_x1899_:
-0.59999999999999998 x220
+1 x295
-1 x320
<= 0

c_u_x1900_:
-0.59999999999999998 x229
+1 x304
-1 x329
<= 0

c_u_x1901_:
-0.89999999999999991 x215
-1 x265
+1 x290
<= 0

c_u_x1902_:
-0.59999999999999998 x220
-1 x270
+1 x295
<= 0

c_u_x1903_:
-0.59999999999999998 x229
-1 x279
+1 x304
<= 0

c_u_x1904_:
-0.89999999999999991 x215
-1 x290
+1 x315
<= 0

c_u_x1905_:
-0.59999999999999998 x220
-1 x295
+1 x320
<= 0

c_u_x1906_:
-0.59999999999999998 x229
-1 x304
+1 x329
<= 0

r_l_x1907_:
+1 x212
>= 0

r_u_x1907_:
+1 x212
<= 5000

r_l_x1908_:
+1 x213
>= 0

r_u_x1908_:
+1 x213
<= 80000

r_l_x1909_:
+1 x214
>= 0

r_u_x1909_:
+1 x214
<= 1400

r_l_x1910_:
+1 x215
>= 0

r_u_x1910_:
+1 x215
<= 60000

r_l_x1911_:
+1 x216
>= 15000

r_u_x1911_:
+1 x216
<= 160000

r_l_x1912_:
+1 x217
>= 999999

r_u_x1912_:
+1 x217
<= 999999

r_l_x1913_:
+1 x218
>= 0

r_u_x1913_:
+1 x218
<= 13000

r_l_x1914_:
+1 x219
>= 0

r_u_x1914_:
+1 x219
<= 6000

r_l_x1915_:
+1 x220
>= 0

r_u_x1915_:
+1 x220
<= 100000

r_l_x1916_:
+1 x221
>= 0

r_u_x1916_:
+1 x221
<= 2500

r_l_x1917_:
+1 x222
>= 0

r_u_x1917_:
+1 x222
<= 100000

r_l_x1918_:
+1 x223
>= 0

r_u_x1918_:
+1 x223
<= 20000

r_l_x1919_:
+1 x224
>= 0

r_u_x1919_:
+1 x224
<= 3000

r_l_x1920_:
+1 x225
>= 0

r_u_x1920_:
+1 x225
<= 2500

r_l_x1921_:
+1 x226
>= 999999

r_u_x1921_:
+1 x226
<= 999999

r_l_x1922_:
+1 x227
>= 0

r_u_x1922_:
+1 x227
<= 60000

r_l_x1923_:
+1 x228
>= 0

r_u_x1923_:
+1 x228
<= 2000

r_l_x1924_:
+1 x229
>= 0

r_u_x1924_:
+1 x229
<= 100000

r_l_x1925_:
+1 x230
>= 0

r_u_x1925_:
+1 x230
<= 1500

r_l_x1926_:
+1 x231
>= 0

r_u_x1926_:
+1 x231
<= 100000

r_l_x1927_:
+1 x232
>= 0

r_u_x1927_:
+1 x232
<= 10000

r_l_x1928_:
+1 x233
>= 20000

r_u_x1928_:
+1 x233
<= 600000

r_l_x1929_:
+1 x234
>= 0

r_u_x1929_:
+1 x234
<= 1500

r_l_x1930_:
+1 x235
>= 999999

r_u_x1930_:
+1 x235
<= 999999

r_l_x1931_:
+1 x236
>= 0

r_u_x1931_:
+1 x236
<= 200000

c_u_x1932_:
+14000 x216
<= 280000000

c_u_x1933_:
+14000 x233
<= 5000000000

c_e_x1934_:
-1 x221
+1 x225
= 0

c_e_x1935_:
-1 x230
+1 x234
= 0

c_u_x1936_:
+0.25 x213
-1 x288
<= 0

c_u_x1937_:
+0.65000000000000002 x215
-1 x290
<= 0

c_u_x1938_:
+0.5 x220
-1 x295
<= 0

c_u_x1939_:
+0.25 x222
-1 x297
<= 0

c_u_x1940_:
+0.5 x229
-1 x304
<= 0

c_u_x1941_:
+0.25 x231
-1 x306
<= 0

c_u_x1942_:
+0.25 x213
-1 x313
<= 0

c_u_x1943_:
+0.65000000000000002 x215
-1 x315
<= 0

c_u_x1944_:
+0.5 x220
-1 x320
<= 0

c_u_x1945_:
+0.25 x222
-1 x322
<= 0

c_u_x1946_:
+0.5 x229
-1 x329
<= 0

c_u_x1947_:
+0.25 x231
-1 x331
<= 0

c_e_x1948_:
-0.066666666666666652 x213
-0.93333333333333324 x288
+1 x355
= 0

c_e_x1949_:
-1.8571428571428574 x215
+0.85714285714285732 x290
+1 x381
= 0

c_e_x1950_:
-0.39999999999999991 x220
-0.60000000000000009 x295
+1 x435
= 0

c_e_x1951_:
-0.066666666666666652 x222
-0.93333333333333324 x297
+1 x463
= 0

c_e_x1952_:
-0.39999999999999991 x229
-0.60000000000000009 x304
+1 x543
= 0

c_e_x1953_:
-0.066666666666666652 x231
-0.93333333333333324 x306
+1 x571
= 0

c_e_x1954_:
-0.066666666666666652 x213
-0.93333333333333324 x313
+1 x655
= 0

c_e_x1955_:
-1.8571428571428574 x215
+0.85714285714285732 x315
+1 x681
= 0

c_e_x1956_:
-0.39999999999999991 x220
-0.60000000000000009 x320
+1 x735
= 0

c_e_x1957_:
-0.066666666666666652 x222
-0.93333333333333324 x322
+1 x763
= 0

c_e_x1958_:
-0.39999999999999991 x229
-0.60000000000000009 x329
+1 x843
= 0

c_e_x1959_:
-0.066666666666666652 x231
-0.93333333333333324 x331
+1 x871
= 0

c_e_x1960_:
+1 x1034
-0.12 x220
-0.17999999999999999 x295
= 0

c_e_x1961_:
+1 x1058
-0.013333333333333327 x222
-0.18666666666666668 x297
= 0

c_e_x1962_:
+1 x1142
-0.12 x229
-0.17999999999999999 x304
= 0

c_e_x1963_:
+1 x1166
-0.013333333333333327 x231
-0.18666666666666668 x306
= 0

c_e_x1964_:
+1 x1334
-0.12 x220
-0.17999999999999999 x320
= 0

c_e_x1965_:
+1 x1358
-0.013333333333333327 x222
-0.18666666666666668 x322
= 0

c_e_x1966_:
+1 x1442
-0.12 x229
-0.17999999999999999 x329
= 0

c_e_x1967_:
+1 x1466
-0.013333333333333327 x231
-0.18666666666666668 x331
= 0

c_e_x1968_:
-0.59999999999999998 x288
+1 x952
= 0

c_e_x1969_:
-0.40000000000000002 x290
+1 x976
= 0

c_e_x1970_:
+1 x1252
-0.59999999999999998 x313
= 0

c_e_x1971_:
+1 x1276
-0.40000000000000002 x315
= 0

c_e_x1972_:
-0.013333333333333327 x213
-0.18666666666666668 x288
+1 x950
= 0

c_e_x1973_:
-0.74285714285714288 x215
+0.34285714285714286 x290
+1 x974
= 0

c_e_x1974_:
+1 x1250
-0.013333333333333327 x213
-0.18666666666666668 x313
= 0

c_e_x1975_:
+1 x1274
-0.74285714285714288 x215
+0.34285714285714286 x315
= 0

c_e_x1976_:
+1 x1537
-1 x1543
= 0

c_e_x1977_:
+1 x1538
-1 x1544
= 0

c_e_x1978_:
+1 x1539
-1 x1545
= 0

c_e_x1979_:
+1 x1540
-1 x1546
= 0

c_e_x1980_:
+1 x1541
-1 x1547
= 0

c_e_x1981_:
+1 x1542
-1 x1548
= 0

c_e_x1982_:
-0.90000000000000002 x1549
+1 x1561
= 0

c_e_x1983_:
-0.90000000000000002 x1550
+1 x1562
= 0

c_e_x1984_:
-0.90000000000000002 x1551
+1 x1563
= 0

c_e_x1985_:
-0.84999999999999998 x1552
+1 x1564
= 0

c_e_x1986_:
-0.90000000000000002 x1553
+1 x1565
= 0

c_e_x1987_:
-0.84999999999999998 x1554
+1 x1566
= 0

c_e_x1988_:
-0.90000000000000002 x1555
+1 x1567
= 0

c_e_x1989_:
-0.90000000000000002 x1556
+1 x1568
= 0

c_e_x1990_:
-0.90000000000000002 x1557
+1 x1569
= 0

c_e_x1991_:
-0.84999999999999998 x1558
+1 x1570
= 0

c_e_x1992_:
-0.90000000000000002 x1559
+1 x1571
= 0

c_e_x1993_:
-0.84999999999999998 x1560
+1 x1572
= 0

c_u_x1994_:
-1 x1537
+1 x1549
<= 0

c_u_x1995_:
-1 x1538
+1 x1550
<= 0

c_u_x1996_:
-1 x1539
+1 x1551
<= 0

c_u_x1997_:
-1 x1540
+1 x1552
<= 0

c_u_x1998_:
-1 x1541
+1 x1553
<= 0

c_u_x1999_:
-1 x1542
+1 x1554
<= 0

c_u_x2000_:
-1 x1537
+1 x1555
<= 0

c_u_x2001_:
-1 x1538
+1 x1556
<= 0

c_u_x2002_:
-1 x1539
+1 x1557
<= 0

c_u_x2003_:
-1 x1540
+1 x1558
<= 0

c_u_x2004_:
-1 x1541
+1 x1559
<= 0

c_u_x2005_:
-1 x1542
+1 x1560
<= 0

c_l_x2006_:
+1 x1537
>= 0

c_l_x2007_:
+1 x1538
>= 0

c_l_x2008_:
+1 x1539
>= 0

c_l_x2009_:
+1 x1540
>= 0

c_l_x2010_:
+1 x1541
>= 0

c_l_x2011_:
+1 x1542
>= 0

c_e_x2012_:
+1 x1537
-1 x1539
= 0

c_e_x2013_:
+1 x1538
-1 x1541
= 0

c_e_x2014_:
-1 x1537
+1 x1539
= 0

c_e_x2015_:
+1 x1540
-1 x1542
= 0

c_e_x2016_:
-1 x1538
+1 x1541
= 0

c_e_x2017_:
-1 x1540
+1 x1542
= 0

c_e_x2018_:
-0.64000000000000001 x1597
+1.5625 x1609
-0.99999649999999995 x1621
+1 x1627
= 0

c_e_x2019_:
-0.93999999999999995 x1598
+1.0638297872340425 x1610
-1 x1622
+1 x1628
= 0

c_e_x2020_:
-0.64000000000000001 x1599
+1.5625 x1611
-0.99999649999999995 x1623
+1 x1629
= 0

c_e_x2021_:
-0.93999999999999995 x1600
+1.0638297872340425 x1612
-1 x1624
+1 x1630
= 0

c_e_x2022_:
-0.64000000000000001 x1601
+1.5625 x1613
-0.99999649999999995 x1625
+1 x1631
= 0

c_e_x2023_:
-0.93999999999999995 x1602
+1.0638297872340425 x1614
-1 x1626
+1 x1632
= 0

c_e_x2024_:
-0.64000000000000001 x1603
+1.5625 x1615
-0.99999649999999995 x1627
+1 x1633
= 0

c_e_x2025_:
-0.93999999999999995 x1604
+1.0638297872340425 x1616
-1 x1628
+1 x1634
= 0

c_e_x2026_:
-0.64000000000000001 x1605
+1.5625 x1617
-0.99999649999999995 x1629
+1 x1635
= 0

c_e_x2027_:
-0.93999999999999995 x1606
+1.0638297872340425 x1618
-1 x1630
+1 x1636
= 0

c_e_x2028_:
-0.64000000000000001 x1607
+1.5625 x1619
-0.99999649999999995 x1631
+1 x1637
= 0

c_e_x2029_:
-0.93999999999999995 x1608
+1.0638297872340425 x1620
-1 x1632
+1 x1638
= 0

c_e_x2030_:
+1 x1585
-1 x1591
= 0

c_e_x2031_:
+1 x1586
-1 x1592
= 0

c_e_x2032_:
+1 x1587
-1 x1593
= 0

c_e_x2033_:
+1 x1588
-1 x1594
= 0

c_e_x2034_:
+1 x1589
-1 x1595
= 0

c_e_x2035_:
+1 x1590
-1 x1596
= 0

c_e_x2036_:
+1 x1573
-1 x1579
= 0

c_e_x2037_:
+1 x1574
-1 x1580
= 0

c_e_x2038_:
+1 x1575
-1 x1581
= 0

c_e_x2039_:
+1 x1576
-1 x1582
= 0

c_e_x2040_:
+1 x1577
-1 x1583
= 0

c_e_x2041_:
+1 x1578
-1 x1584
= 0

c_u_x2042_:
-1 x1585
+1 x1597
<= 0

c_u_x2043_:
-1 x1586
+1 x1598
<= 0

c_u_x2044_:
-1 x1587
+1 x1599
<= 0

c_u_x2045_:
-1 x1588
+1 x1600
<= 0

c_u_x2046_:
-1 x1589
+1 x1601
<= 0

c_u_x2047_:
-1 x1590
+1 x1602
<= 0

c_u_x2048_:
-1 x1585
+1 x1603
<= 0

c_u_x2049_:
-1 x1586
+1 x1604
<= 0

c_u_x2050_:
-1 x1587
+1 x1605
<= 0

c_u_x2051_:
-1 x1588
+1 x1606
<= 0

c_u_x2052_:
-1 x1589
+1 x1607
<= 0

c_u_x2053_:
-1 x1590
+1 x1608
<= 0

c_u_x2054_:
-1 x1585
+1 x1609
<= 0

c_u_x2055_:
-1 x1586
+1 x1610
<= 0

c_u_x2056_:
-1 x1587
+1 x1611
<= 0

c_u_x2057_:
-1 x1588
+1 x1612
<= 0

c_u_x2058_:
-1 x1589
+1 x1613
<= 0

c_u_x2059_:
-1 x1590
+1 x1614
<= 0

c_u_x2060_:
-1 x1585
+1 x1615
<= 0

c_u_x2061_:
-1 x1586
+1 x1616
<= 0

c_u_x2062_:
-1 x1587
+1 x1617
<= 0

c_u_x2063_:
-1 x1588
+1 x1618
<= 0

c_u_x2064_:
-1 x1589
+1 x1619
<= 0

c_u_x2065_:
-1 x1590
+1 x1620
<= 0

c_u_x2066_:
-1 x1573
+1 x1621
<= 0

c_u_x2067_:
-1 x1574
+1 x1622
<= 0

c_u_x2068_:
-1 x1575
+1 x1623
<= 0

c_u_x2069_:
-1 x1576
+1 x1624
<= 0

c_u_x2070_:
-1 x1577
+1 x1625
<= 0

c_u_x2071_:
-1 x1578
+1 x1626
<= 0

c_u_x2072_:
-1 x1573
+1 x1627
<= 0

c_u_x2073_:
-1 x1574
+1 x1628
<= 0

c_u_x2074_:
-1 x1575
+1 x1629
<= 0

c_u_x2075_:
-1 x1576
+1 x1630
<= 0

c_u_x2076_:
-1 x1577
+1 x1631
<= 0

c_u_x2077_:
-1 x1578
+1 x1632
<= 0

c_u_x2078_:
-1 x1573
+1 x1633
<= 0

c_u_x2079_:
-1 x1574
+1 x1634
<= 0

c_u_x2080_:
-1 x1575
+1 x1635
<= 0

c_u_x2081_:
-1 x1576
+1 x1636
<= 0

c_u_x2082_:
-1 x1577
+1 x1637
<= 0

c_u_x2083_:
-1 x1578
+1 x1638
<= 0

c_l_x2084_:
+1 x1585
>= 0

c_l_x2085_:
+1 x1586
>= 8000

c_l_x2086_:
+1 x1587
>= 0

c_l_x2087_:
+1 x1588
>= 1500

c_l_x2088_:
+1 x1589
>= 0

c_l_x2089_:
+1 x1590
>= 500

c_l_x2090_:
+1 x1573
>= 0

c_l_x2091_:
+1 x1574
>= 60000

c_l_x2092_:
+1 x1575
>= 0

c_l_x2093_:
+1 x1576
>= 700000

c_l_x2094_:
+1 x1577
>= 0

c_l_x2095_:
+1 x1578
>= 163000

c_e_x2096_:
-0.5 x1573
+1 x1621
= 0

c_e_x2097_:
-0.5 x1574
+1 x1622
= 0

c_e_x2098_:
-0.5 x1575
+1 x1623
= 0

c_e_x2099_:
-0.5 x1576
+1 x1624
= 0

c_e_x2100_:
-0.5 x1577
+1 x1625
= 0

c_e_x2101_:
-0.5 x1578
+1 x1626
= 0

c_u_x2102_:
+0.5 x1573
-1 x1633
<= 0

c_u_x2103_:
+0.5 x1574
-1 x1634
<= 0

c_u_x2104_:
+0.5 x1575
-1 x1635
<= 0

c_u_x2105_:
+0.5 x1576
-1 x1636
<= 0

c_u_x2106_:
+0.5 x1577
-1 x1637
<= 0

c_u_x2107_:
+0.5 x1578
-1 x1638
<= 0

c_e_x2108_:
+1 x1
= 0

c_e_x2109_:
-16500 x1537
-16500 x1538
-16500 x1539
-30000 x1540
-16500 x1541
-30000 x1542
-0.32700000000000001 x1573
-0.32700000000000001 x1575
-0.32700000000000001 x1577
-20000 x1586
-20000 x1588
-20000 x1590
+1 x2
-28000 x212
-6000 x213
-20000 x214
-18000 x215
-12000 x216
-30000 x218
-28000 x219
-18000 x220
-6000 x222
-20000 x223
-12000 x224
-80 x225
-30000 x227
-28000 x228
-18000 x229
-6000 x231
-20000 x232
-12000 x233
-80 x234
-30000 x236
= 0

c_e_x2110_:
-20440 x10
-78840 x12
-11680 x14
-2917080 x15
-17520 x18
-20440 x20
-78840 x24
-11680 x26
-2917080 x27
+1 x3
-17520 x30
-20440 x32
-78840 x36
-11680 x38
-2917080 x39
-17520 x42
-20440 x44
-78840 x46
-11680 x48
-2917080 x49
-17520 x52
-20440 x54
-78840 x58
-11680 x60
-2917080 x61
-17520 x64
-20440 x66
-78840 x70
-11680 x72
-2917080 x73
-17520 x8
= 0

c_e_x2111_:
-123765.07914145701 x1543
-123765.07914145701 x1544
-123765.07914145701 x1545
-225027.41662083095 x1546
-123765.07914145701 x1547
-225027.41662083095 x1548
-0.47388741598903417 x1579
-0.47388741598903417 x1581
-0.47388741598903417 x1583
-3043.3136806635221 x1591
-7245.9849539607667 x1592
-3043.3136806635221 x1593
-7245.9849539607667 x1594
-3043.3136806635221 x1595
-7245.9849539607667 x1596
-75084.202568082401 x237
-36263.88158000003 x238
-115935.75926337227 x239
-45005.483324166191 x240
-51486.310332399356 x241
-128715.77583099841 x243
-75084.202568082401 x244
-45005.483324166191 x245
-36263.88158000003 x247
-115935.75926337227 x248
-51486.310332399356 x249
-128715.77583099841 x252
-75084.202568082401 x253
-45005.483324166191 x254
-36263.88158000003 x256
-115935.75926337227 x257
-51486.310332399356 x258
-128715.77583099841 x261
+1 x4
= 0

c_e_x2112_:
-292 x158
-233.59999999999999 x170
-365 x192
-292 x204
+1 x5
= 0

c_e_x2113_:
-184.48559999999998 x103
+16.299367 x125
+195.59240399999999 x137
+1 x6
-15.373799999999999 x91
= 0

c_e_x2114_:
-58.399999999999999 x1597
-58.399999999999999 x1598
-58.399999999999999 x1599
-58.399999999999999 x1600
-58.399999999999999 x1601
-58.399999999999999 x1602
-58.399999999999999 x1603
-58.399999999999999 x1604
-58.399999999999999 x1605
-58.399999999999999 x1606
-58.399999999999999 x1607
-58.399999999999999 x1608
-58.399999999999999 x1609
-58.399999999999999 x1610
-58.399999999999999 x1611
-58.399999999999999 x1612
-58.399999999999999 x1613
-58.399999999999999 x1614
-58.399999999999999 x1615
-58.399999999999999 x1616
-58.399999999999999 x1617
-58.399999999999999 x1618
-58.399999999999999 x1619
-58.399999999999999 x1620
-4087.9999999999995 x287
-4730.4000000000005 x288
-1752.0000000000002 x290
-292000 x292
-4087.9999999999995 x294
-1752.0000000000002 x295
-4730.4000000000005 x297
-292000 x301
-4087.9999999999995 x303
-1752.0000000000002 x304
-4730.4000000000005 x306
-2917080 x310
-4087.9999999999995 x312
-4730.4000000000005 x313
-1752.0000000000002 x315
-292000 x317
-4087.9999999999995 x319
-1752.0000000000002 x320
-4730.4000000000005 x322
-292000 x326
-4087.9999999999995 x328
-1752.0000000000002 x329
-4730.4000000000005 x331
-2917080 x335
+1 x7
= 0

c_e_x2115_:
-1 x1639
+1 x1645
+1 x1648
= 0

c_e_x2116_:
-1 x1640
+1 x1646
+1 x1649
= 0

c_e_x2117_:
-0.90000000000000002 x1641
+1 x1647
+1 x1650
= 0

c_e_x2118_:
-1 x1642
+1 x1651
+1 x1654
= 0

c_e_x2119_:
-1 x1643
+1 x1652
+1 x1655
= 0

c_e_x2120_:
-0.90000000000000002 x1644
+1 x1653
+1 x1656
= 0

c_u_x2121_:
+1 x1639
<= 0

c_u_x2122_:
+1 x1640
<= 500

c_u_x2123_:
+1 x1641
<= 2000

c_u_x2124_:
+1 x1642
<= 0

c_u_x2125_:
+1 x1643
<= 500

c_u_x2126_:
+1 x1644
<= 2000

c_u_x2127_:
+1 x1645
+1 x1651
<= 0

c_u_x2128_:
+1 x1646
+1 x1652
<= 500

c_u_x2129_:
+1 x1647
+1 x1653
<= 2000

c_u_x2130_:
+1 x1648
+1 x1654
<= 0

c_u_x2131_:
+1 x1649
+1 x1655
<= 500

c_u_x2132_:
+1 x1650
+1 x1656
<= 2000

c_u_x2133_:
+1 x1639
+1 x1645
+1 x1651
<= 0

c_u_x2134_:
+1 x1640
+1 x1646
+1 x1652
<= 500

c_u_x2135_:
+1 x1641
+1 x1647
+1 x1653
<= 2000

c_u_x2136_:
+1 x1642
+1 x1648
+1 x1654
<= 0

c_u_x2137_:
+1 x1643
+1 x1649
+1 x1655
<= 500

c_u_x2138_:
+1 x1644
+1 x1650
+1 x1656
<= 2000

c_u_x2139_:
+1 x1639
<= 0

c_u_x2140_:
+1 x1640
<= 4000

c_u_x2141_:
+1 x1641
<= 32000

c_u_x2142_:
+1 x1642
<= 0

c_u_x2143_:
+1 x1643
<= 4000

c_u_x2144_:
+1 x1644
<= 32000

c_u_x2145_:
+2920 x1022
+2920 x1034
+2920 x1058
+2920 x1094
+2920 x1106
+2920 x1130
+2920 x1142
+2920 x1166
+2920 x1202
+2920 x1214
+2920 x1238
+2920 x1250
+2920 x1274
+2920 x1298
+2920 x1322
+2920 x1334
+2920 x1358
+2920 x1394
+2920 x1406
+2920 x1430
+2920 x1442
+2920 x1466
+2920 x1502
+2920 x1514
+2920 x938
+2920 x950
+2920 x974
+2920 x998
<= 150000000

c_e_ONE_VAR_CONSTANT: 
ONE_VAR_CONSTANT = 1.0

bounds
    -inf <= x1 <= +inf
    -inf <= x2 <= +inf
    -inf <= x3 <= +inf
    -inf <= x4 <= +inf
    -inf <= x5 <= +inf
    -inf <= x6 <= +inf
    -inf <= x7 <= +inf
   0 <= x8 <= +inf
   0 <= x10 <= +inf
   0 <= x12 <= +inf
   0 <= x14 <= +inf
   0 <= x15 <= +inf
   0 <= x18 <= +inf
   0 <= x20 <= +inf
   0 <= x24 <= +inf
   0 <= x26 <= +inf
   0 <= x27 <= +inf
   0 <= x30 <= +inf
   0 <= x32 <= +inf
   0 <= x36 <= +inf
   0 <= x38 <= +inf
   0 <= x39 <= +inf
   0 <= x42 <= +inf
   0 <= x44 <= +inf
   0 <= x46 <= +inf
   0 <= x48 <= +inf
   0 <= x49 <= +inf
   0 <= x52 <= +inf
   0 <= x54 <= +inf
   0 <= x58 <= +inf
   0 <= x60 <= +inf
   0 <= x61 <= +inf
   0 <= x64 <= +inf
   0 <= x66 <= +inf
   0 <= x70 <= +inf
   0 <= x72 <= +inf
   0 <= x73 <= +inf
   0 <= x91 <= +inf
   0 <= x103 <= +inf
   0 <= x125 <= +inf
   0 <= x137 <= +inf
   0 <= x158 <= +inf
   0 <= x170 <= +inf
   0 <= x192 <= +inf
   0 <= x204 <= +inf
   0 <= x212 <= +inf
   0 <= x213 <= +inf
   0 <= x214 <= +inf
   0 <= x215 <= +inf
   0 <= x216 <= +inf
   0 <= x217 <= +inf
   0 <= x218 <= +inf
   0 <= x219 <= +inf
   0 <= x220 <= +inf
   0 <= x221 <= +inf
   0 <= x222 <= +inf
   0 <= x223 <= +inf
   0 <= x224 <= +inf
   0 <= x225 <= +inf
   0 <= x226 <= +inf
   0 <= x227 <= +inf
   0 <= x228 <= +inf
   0 <= x229 <= +inf
   0 <= x230 <= +inf
   0 <= x231 <= +inf
   0 <= x232 <= +inf
   0 <= x233 <= +inf
   0 <= x234 <= +inf
   0 <= x235 <= +inf
   0 <= x236 <= +inf
   0 <= x237 <= +inf
   0 <= x238 <= +inf
   0 <= x239 <= +inf
   0 <= x240 <= +inf
   0 <= x241 <= +inf
   0 <= x242 <= +inf
   0 <= x243 <= +inf
   0 <= x244 <= +inf
   0 <= x245 <= +inf
   0 <= x246 <= +inf
   0 <= x247 <= +inf
   0 <= x248 <= +inf
   0 <= x249 <= +inf
   0 <= x250 <= +inf
   0 <= x251 <= +inf
   0 <= x252 <= +inf
   0 <= x253 <= +inf
   0 <= x254 <= +inf
   0 <= x255 <= +inf
   0 <= x256 <= +inf
   0 <= x257 <= +inf
   0 <= x258 <= +inf
   0 <= x259 <= +inf
   0 <= x260 <= +inf
   0 <= x261 <= +inf
   0 <= x265 <= +inf
   0 <= x270 <= +inf
   0 <= x279 <= +inf
   0 <= x287 <= +inf
   0 <= x288 <= +inf
   0 <= x289 <= +inf
   0 <= x290 <= +inf
   0 <= x291 <= +inf
   0 <= x292 <= +inf
   0 <= x293 <= +inf
   0 <= x294 <= +inf
   0 <= x295 <= +inf
   0 <= x296 <= +inf
   0 <= x297 <= +inf
   0 <= x298 <= +inf
   0 <= x299 <= +inf
   0 <= x300 <= +inf
   0 <= x301 <= +inf
   0 <= x302 <= +inf
   0 <= x303 <= +inf
   0 <= x304 <= +inf
   0 <= x305 <= +inf
   0 <= x306 <= +inf
   0 <= x307 <= +inf
   0 <= x308 <= +inf
   0 <= x309 <= +inf
   0 <= x310 <= +inf
   0 <= x311 <= +inf
   0 <= x312 <= +inf
   0 <= x313 <= +inf
   0 <= x314 <= +inf
   0 <= x315 <= +inf
   0 <= x316 <= +inf
   0 <= x317 <= +inf
   0 <= x318 <= +inf
   0 <= x319 <= +inf
   0 <= x320 <= +inf
   0 <= x321 <= +inf
   0 <= x322 <= +inf
   0 <= x323 <= +inf
   0 <= x324 <= +inf
   0 <= x325 <= +inf
   0 <= x326 <= +inf
   0 <= x327 <= +inf
   0 <= x328 <= +inf
   0 <= x329 <= +inf
   0 <= x330 <= +inf
   0 <= x331 <= +inf
   0 <= x332 <= +inf
   0 <= x333 <= +inf
   0 <= x334 <= +inf
   0 <= x335 <= +inf
   0 <= x336 <= +inf
   0 <= x337 <= +inf
   0 <= x355 <= +inf
   0 <= x368 <= +inf
   0 <= x381 <= +inf
   0 <= x395 <= +inf
   0 <= x406 <= +inf
   0 <= x420 <= +inf
   0 <= x421 <= +inf
   0 <= x435 <= +inf
   0 <= x448 <= +inf
   0 <= x463 <= +inf
   0 <= x476 <= +inf
   0 <= x491 <= +inf
   0 <= x497 <= +inf
   0 <= x514 <= +inf
   0 <= x528 <= +inf
   0 <= x529 <= +inf
   0 <= x543 <= +inf
   0 <= x556 <= +inf
   0 <= x571 <= +inf
   0 <= x584 <= +inf
   0 <= x599 <= +inf
   0 <= x605 <= +inf
   0 <= x622 <= +inf
   0 <= x636 <= +inf
   0 <= x637 <= +inf
   0 <= x655 <= +inf
   0 <= x668 <= +inf
   0 <= x681 <= +inf
   0 <= x695 <= +inf
   0 <= x706 <= +inf
   0 <= x720 <= +inf
   0 <= x721 <= +inf
   0 <= x735 <= +inf
   0 <= x748 <= +inf
   0 <= x763 <= +inf
   0 <= x776 <= +inf
   0 <= x791 <= +inf
   0 <= x797 <= +inf
   0 <= x814 <= +inf
   0 <= x828 <= +inf
   0 <= x829 <= +inf
   0 <= x843 <= +inf
   0 <= x856 <= +inf
   0 <= x871 <= +inf
   0 <= x884 <= +inf
   0 <= x899 <= +inf
   0 <= x905 <= +inf
   0 <= x922 <= +inf
   0 <= x936 <= +inf
   0 <= x938 <= +inf
   0 <= x940 <= +inf
   0 <= x950 <= +inf
   0 <= x952 <= +inf
   0 <= x964 <= +inf
   0 <= x974 <= +inf
   0 <= x976 <= +inf
   0 <= x988 <= +inf
   0 <= x998 <= +inf
   0 <= x1000 <= +inf
   0 <= x1012 <= +inf
   0 <= x1022 <= +inf
   0 <= x1024 <= +inf
   0 <= x1034 <= +inf
   0 <= x1036 <= +inf
   0 <= x1050 <= +inf
   0 <= x1058 <= +inf
   0 <= x1060 <= +inf
   0 <= x1072 <= +inf
   0 <= x1084 <= +inf
   0 <= x1094 <= +inf
   0 <= x1096 <= +inf
   0 <= x1106 <= +inf
   0 <= x1108 <= +inf
   0 <= x1120 <= +inf
   0 <= x1130 <= +inf
   0 <= x1132 <= +inf
   0 <= x1142 <= +inf
   0 <= x1144 <= +inf
   0 <= x1158 <= +inf
   0 <= x1166 <= +inf
   0 <= x1168 <= +inf
   0 <= x1180 <= +inf
   0 <= x1192 <= +inf
   0 <= x1202 <= +inf
   0 <= x1204 <= +inf
   0 <= x1214 <= +inf
   0 <= x1216 <= +inf
   0 <= x1228 <= +inf
   0 <= x1238 <= +inf
   0 <= x1240 <= +inf
   0 <= x1250 <= +inf
   0 <= x1252 <= +inf
   0 <= x1264 <= +inf
   0 <= x1274 <= +inf
   0 <= x1276 <= +inf
   0 <= x1288 <= +inf
   0 <= x1298 <= +inf
   0 <= x1300 <= +inf
   0 <= x1312 <= +inf
   0 <= x1322 <= +inf
   0 <= x1324 <= +inf
   0 <= x1334 <= +inf
   0 <= x1336 <= +inf
   0 <= x1350 <= +inf
   0 <= x1358 <= +inf
   0 <= x1360 <= +inf
   0 <= x1372 <= +inf
   0 <= x1384 <= +inf
   0 <= x1394 <= +inf
   0 <= x1396 <= +inf
   0 <= x1406 <= +inf
   0 <= x1408 <= +inf
   0 <= x1420 <= +inf
   0 <= x1430 <= +inf
   0 <= x1432 <= +inf
   0 <= x1442 <= +inf
   0 <= x1444 <= +inf
   0 <= x1458 <= +inf
   0 <= x1466 <= +inf
   0 <= x1468 <= +inf
   0 <= x1480 <= +inf
   0 <= x1492 <= +inf
   0 <= x1502 <= +inf
   0 <= x1504 <= +inf
   0 <= x1514 <= +inf
   0 <= x1516 <= +inf
   0 <= x1528 <= +inf
   0 <= x1537 <= +inf
   0 <= x1538 <= +inf
   0 <= x1539 <= +inf
   0 <= x1540 <= +inf
   0 <= x1541 <= +inf
   0 <= x1542 <= +inf
   0 <= x1543 <= +inf
   0 <= x1544 <= +inf
   0 <= x1545 <= +inf
   0 <= x1546 <= +inf
   0 <= x1547 <= +inf
   0 <= x1548 <= +inf
   0 <= x1549 <= +inf
   0 <= x1550 <= +inf
   0 <= x1551 <= +inf
   0 <= x1552 <= +inf
   0 <= x1553 <= +inf
   0 <= x1554 <= +inf
   0 <= x1555 <= +inf
   0 <= x1556 <= +inf
   0 <= x1557 <= +inf
   0 <= x1558 <= +inf
   0 <= x1559 <= +inf
   0 <= x1560 <= +inf
   0 <= x1561 <= +inf
   0 <= x1562 <= +inf
   0 <= x1563 <= +inf
   0 <= x1564 <= +inf
   0 <= x1565 <= +inf
   0 <= x1566 <= +inf
   0 <= x1567 <= +inf
   0 <= x1568 <= +inf
   0 <= x1569 <= +inf
   0 <= x1570 <= +inf
   0 <= x1571 <= +inf
   0 <= x1572 <= +inf
   0 <= x1573 <= +inf
   0 <= x1574 <= +inf
   0 <= x1575 <= +inf
   0 <= x1576 <= +inf
   0 <= x1577 <= +inf
   0 <= x1578 <= +inf
   0 <= x1579 <= +inf
   0 <= x1580 <= +inf
   0 <= x1581 <= +inf
   0 <= x1582 <= +inf
   0 <= x1583 <= +inf
   0 <= x1584 <= +inf
   0 <= x1585 <= +inf
   0 <= x1586 <= +inf
   0 <= x1587 <= +inf
   0 <= x1588 <= +inf
   0 <= x1589 <= +inf
   0 <= x1590 <= +inf
   0 <= x1591 <= +inf
   0 <= x1592 <= +inf
   0 <= x1593 <= +inf
   0 <= x1594 <= +inf
   0 <= x1595 <= +inf
   0 <= x1596 <= +inf
   0 <= x1597 <= +inf
   0 <= x1598 <= +inf
   0 <= x1599 <= +inf
   0 <= x1600 <= +inf
   0 <= x1601 <= +inf
   0 <= x1602 <= +inf
   0 <= x1603 <= +inf
   0 <= x1604 <= +inf
   0 <= x1605 <= +inf
   0 <= x1606 <= +inf
   0 <= x1607 <= +inf
   0 <= x1608 <= +inf
   0 <= x1609 <= +inf
   0 <= x1610 <= +inf
   0 <= x1611 <= +inf
   0 <= x1612 <= +inf
   0 <= x1613 <= +inf
   0 <= x1614 <= +inf
   0 <= x1615 <= +inf
   0 <= x1616 <= +inf
   0 <= x1617 <= +inf
   0 <= x1618 <= +inf
   0 <= x1619 <= +inf
   0 <= x1620 <= +inf
   0 <= x1621 <= +inf
   0 <= x1622 <= +inf
   0 <= x1623 <= +inf
   0 <= x1624 <= +inf
   0 <= x1625 <= +inf
   0 <= x1626 <= +inf
   0 <= x1627 <= +inf
   0 <= x1628 <= +inf
   0 <= x1629 <= +inf
   0 <= x1630 <= +inf
   0 <= x1631 <= +inf
   0 <= x1632 <= +inf
   0 <= x1633 <= +inf
   0 <= x1634 <= +inf
   0 <= x1635 <= +inf
   0 <= x1636 <= +inf
   0 <= x1637 <= +inf
   0 <= x1638 <= +inf
   0 <= x1639 <= +inf
   0 <= x1640 <= +inf
   0 <= x1641 <= +inf
   0 <= x1642 <= +inf
   0 <= x1643 <= +inf
   0 <= x1644 <= +inf
   0 <= x1645 <= +inf
   0 <= x1646 <= +inf
   0 <= x1647 <= +inf
   0 <= x1648 <= +inf
   0 <= x1649 <= +inf
   0 <= x1650 <= +inf
   0 <= x1651 <= +inf
   0 <= x1652 <= +inf
   0 <= x1653 <= +inf
   0 <= x1654 <= +inf
   0 <= x1655 <= +inf
   0 <= x1656 <= +inf
end
